c "989913.clq"
p edge 196 2880
e 1 17
e 1 18
e 1 20
e 1 21
e 1 22
e 1 25
e 1 26
e 1 27
e 1 28
e 1 30
e 1 31
e 1 50
e 1 55
e 1 58
e 1 60
e 1 66
e 1 69
e 1 73
e 1 74
e 1 76
e 1 78
e 1 79
e 1 83
e 1 84
e 1 87
e 1 89
e 1 92
e 1 95
e 1 98
e 1 108
e 1 110
e 1 121
e 1 123
e 1 125
e 1 129
e 1 135
e 1 145
e 1 148
e 1 152
e 1 156
e 1 163
e 1 164
e 1 166
e 1 168
e 1 172
e 1 179
e 1 190
e 1 191
e 1 194
e 2 17
e 2 18
e 2 19
e 2 20
e 2 21
e 2 24
e 2 25
e 2 27
e 2 43
e 2 45
e 2 50
e 2 54
e 2 60
e 2 73
e 2 78
e 2 81
e 2 84
e 2 85
e 2 92
e 2 95
e 2 98
e 2 107
e 2 111
e 2 120
e 2 125
e 2 133
e 2 170
e 2 177
e 2 190
e 2 191
e 3 17
e 3 18
e 3 20
e 3 21
e 3 22
e 3 23
e 3 24
e 3 25
e 3 26
e 3 28
e 3 32
e 3 34
e 3 39
e 3 40
e 3 42
e 3 46
e 3 47
e 3 48
e 3 52
e 3 53
e 3 55
e 3 60
e 3 63
e 3 64
e 3 69
e 3 72
e 3 76
e 3 82
e 3 89
e 3 97
e 3 101
e 3 104
e 3 105
e 3 118
e 3 121
e 3 136
e 3 151
e 3 173
e 4 17
e 4 18
e 4 19
e 4 20
e 4 21
e 4 22
e 4 23
e 4 24
e 4 26
e 4 27
e 4 31
e 4 32
e 4 33
e 4 34
e 4 35
e 4 36
e 4 38
e 4 44
e 4 45
e 4 46
e 4 50
e 4 55
e 4 56
e 4 59
e 4 66
e 4 68
e 4 72
e 4 76
e 4 78
e 4 81
e 4 88
e 4 91
e 4 93
e 4 95
e 4 98
e 4 103
e 4 117
e 4 127
e 4 137
e 4 147
e 4 176
e 4 196
e 5 17
e 5 18
e 5 19
e 5 20
e 5 21
e 5 23
e 5 24
e 5 25
e 5 27
e 5 30
e 5 33
e 5 37
e 5 42
e 5 48
e 5 50
e 5 52
e 5 69
e 5 74
e 5 79
e 5 82
e 5 86
e 5 95
e 5 97
e 5 105
e 5 119
e 5 129
e 5 190
e 6 17
e 6 18
e 6 19
e 6 20
e 6 21
e 6 22
e 6 23
e 6 26
e 6 31
e 6 35
e 6 36
e 6 38
e 6 39
e 6 40
e 6 46
e 6 49
e 6 51
e 6 56
e 6 57
e 6 60
e 6 62
e 6 69
e 6 77
e 6 88
e 6 94
e 6 106
e 6 116
e 6 118
e 6 129
e 6 141
e 6 149
e 6 151
e 6 161
e 6 176
e 6 187
e 6 188
e 6 196
e 7 17
e 7 18
e 7 19
e 7 20
e 7 21
e 7 23
e 7 33
e 7 35
e 7 37
e 7 39
e 7 40
e 7 43
e 7 46
e 7 48
e 7 52
e 7 54
e 7 61
e 7 63
e 7 72
e 7 86
e 7 90
e 7 99
e 7 141
e 7 164
e 8 17
e 8 19
e 8 20
e 8 21
e 8 22
e 8 24
e 8 29
e 8 31
e 8 37
e 8 43
e 8 47
e 8 71
e 8 75
e 8 78
e 8 83
e 8 96
e 8 108
e 8 109
e 8 126
e 8 133
e 8 158
e 8 163
e 8 194
e 9 17
e 9 18
e 9 19
e 9 21
e 9 22
e 9 23
e 9 24
e 9 26
e 9 27
e 9 30
e 9 31
e 9 32
e 9 33
e 9 34
e 9 36
e 9 37
e 9 42
e 9 44
e 9 46
e 9 50
e 9 52
e 9 54
e 9 56
e 9 58
e 9 63
e 9 68
e 9 75
e 9 86
e 9 97
e 9 114
e 9 116
e 9 128
e 9 146
e 9 182
e 10 17
e 10 18
e 10 19
e 10 20
e 10 23
e 10 24
e 10 25
e 10 27
e 10 28
e 10 29
e 10 30
e 10 31
e 10 35
e 10 37
e 10 40
e 10 42
e 10 44
e 10 92
e 10 99
e 10 127
e 10 132
e 10 152
e 10 169
e 10 170
e 10 184
e 11 17
e 11 18
e 11 19
e 11 21
e 11 22
e 11 23
e 11 26
e 11 29
e 11 32
e 11 35
e 11 36
e 11 38
e 11 42
e 11 61
e 11 77
e 11 79
e 11 81
e 11 97
e 11 100
e 11 103
e 11 155
e 11 162
e 11 174
e 11 181
e 12 17
e 12 18
e 12 19
e 12 20
e 12 22
e 12 23
e 12 24
e 12 25
e 12 26
e 12 29
e 12 30
e 12 35
e 12 36
e 12 46
e 12 54
e 12 56
e 12 59
e 12 60
e 12 61
e 12 62
e 12 65
e 12 69
e 12 70
e 12 71
e 12 75
e 12 76
e 12 83
e 12 87
e 12 89
e 12 91
e 12 92
e 12 98
e 12 102
e 12 108
e 12 112
e 12 113
e 12 118
e 12 119
e 12 129
e 12 130
e 12 135
e 12 143
e 12 147
e 12 158
e 12 160
e 12 161
e 12 167
e 12 179
e 12 190
e 12 196
e 13 17
e 13 18
e 13 19
e 13 20
e 13 24
e 13 28
e 13 29
e 13 33
e 13 36
e 13 37
e 13 49
e 13 51
e 13 58
e 13 83
e 13 84
e 13 96
e 13 121
e 13 134
e 13 143
e 14 17
e 14 18
e 14 19
e 14 20
e 14 21
e 14 22
e 14 23
e 14 24
e 14 28
e 14 29
e 14 30
e 14 31
e 14 34
e 14 39
e 14 43
e 14 47
e 14 48
e 14 52
e 14 70
e 14 74
e 14 78
e 14 81
e 14 82
e 14 93
e 14 96
e 14 98
e 14 100
e 14 107
e 14 109
e 14 120
e 14 122
e 14 123
e 14 124
e 14 130
e 14 146
e 14 160
e 14 163
e 14 168
e 14 169
e 14 173
e 14 195
e 15 17
e 15 18
e 15 19
e 15 22
e 15 23
e 15 24
e 15 25
e 15 28
e 15 30
e 15 32
e 15 35
e 15 39
e 15 43
e 15 46
e 15 51
e 15 53
e 15 62
e 15 63
e 15 64
e 15 87
e 15 96
e 15 106
e 15 115
e 15 133
e 15 141
e 15 145
e 15 149
e 15 158
e 15 161
e 15 162
e 15 168
e 15 170
e 15 196
e 16 17
e 16 18
e 16 19
e 16 20
e 16 21
e 16 22
e 16 25
e 16 26
e 16 27
e 16 28
e 16 29
e 16 30
e 16 32
e 16 34
e 16 38
e 16 41
e 16 47
e 16 48
e 16 55
e 16 57
e 16 66
e 16 74
e 16 84
e 16 85
e 16 95
e 16 108
e 16 109
e 16 112
e 16 118
e 16 121
e 16 127
e 16 135
e 16 139
e 16 143
e 16 144
e 16 159
e 16 161
e 16 164
e 16 176
e 16 181
e 16 184
e 16 192
e 16 195
e 17 18
e 17 19
e 17 20
e 17 21
e 17 22
e 17 23
e 17 24
e 17 25
e 17 26
e 17 27
e 17 28
e 17 29
e 17 30
e 17 32
e 17 34
e 17 36
e 17 38
e 17 41
e 17 42
e 17 46
e 17 48
e 17 50
e 17 54
e 17 56
e 17 57
e 17 58
e 17 61
e 17 63
e 17 64
e 17 65
e 17 66
e 17 67
e 17 68
e 17 71
e 17 74
e 17 80
e 17 82
e 17 85
e 17 88
e 17 92
e 17 96
e 17 98
e 17 99
e 17 101
e 17 109
e 17 114
e 17 116
e 17 131
e 17 132
e 17 136
e 17 138
e 17 144
e 17 146
e 17 147
e 17 150
e 17 152
e 17 153
e 17 157
e 17 161
e 17 167
e 17 169
e 17 172
e 17 173
e 17 185
e 17 187
e 17 193
e 17 194
e 18 19
e 18 20
e 18 21
e 18 22
e 18 25
e 18 26
e 18 30
e 18 31
e 18 32
e 18 39
e 18 40
e 18 41
e 18 42
e 18 43
e 18 45
e 18 49
e 18 50
e 18 56
e 18 58
e 18 60
e 18 65
e 18 66
e 18 68
e 18 73
e 18 80
e 18 81
e 18 83
e 18 84
e 18 94
e 18 95
e 18 97
e 18 98
e 18 99
e 18 103
e 18 106
e 18 107
e 18 108
e 18 110
e 18 114
e 18 117
e 18 129
e 18 130
e 18 131
e 18 139
e 18 141
e 18 145
e 18 147
e 18 153
e 18 155
e 18 160
e 18 165
e 18 169
e 18 171
e 18 175
e 18 178
e 18 185
e 18 190
e 18 191
e 19 20
e 19 21
e 19 22
e 19 23
e 19 24
e 19 25
e 19 26
e 19 27
e 19 28
e 19 29
e 19 31
e 19 32
e 19 35
e 19 36
e 19 43
e 19 44
e 19 45
e 19 46
e 19 47
e 19 49
e 19 50
e 19 53
e 19 56
e 19 59
e 19 65
e 19 67
e 19 70
e 19 72
e 19 73
e 19 76
e 19 77
e 19 79
e 19 83
e 19 84
e 19 89
e 19 98
e 19 101
e 19 107
e 19 112
e 19 119
e 19 121
e 19 122
e 19 145
e 19 149
e 19 160
e 19 165
e 19 166
e 19 167
e 19 171
e 19 180
e 19 186
e 19 192
e 19 194
e 20 21
e 20 22
e 20 23
e 20 24
e 20 25
e 20 26
e 20 27
e 20 28
e 20 29
e 20 30
e 20 31
e 20 32
e 20 33
e 20 34
e 20 36
e 20 38
e 20 39
e 20 40
e 20 41
e 20 46
e 20 47
e 20 51
e 20 58
e 20 62
e 20 67
e 20 69
e 20 70
e 20 73
e 20 75
e 20 76
e 20 77
e 20 78
e 20 81
e 20 82
e 20 91
e 20 92
e 20 97
e 20 99
e 20 104
e 20 105
e 20 106
e 20 107
e 20 110
e 20 111
e 20 133
e 20 137
e 20 138
e 20 140
e 20 141
e 20 145
e 20 154
e 20 170
e 20 188
e 20 189
e 20 196
e 21 22
e 21 23
e 21 24
e 21 25
e 21 26
e 21 27
e 21 28
e 21 29
e 21 31
e 21 33
e 21 35
e 21 37
e 21 41
e 21 42
e 21 44
e 21 45
e 21 50
e 21 51
e 21 54
e 21 55
e 21 57
e 21 58
e 21 62
e 21 65
e 21 66
e 21 67
e 21 70
e 21 75
e 21 76
e 21 78
e 21 81
e 21 88
e 21 99
e 21 100
e 21 103
e 21 115
e 21 123
e 21 124
e 21 125
e 21 130
e 21 139
e 21 142
e 21 144
e 21 153
e 21 156
e 21 159
e 21 161
e 21 163
e 21 167
e 21 169
e 21 181
e 21 183
e 21 187
e 21 188
e 22 23
e 22 24
e 22 25
e 22 26
e 22 27
e 22 29
e 22 31
e 22 32
e 22 33
e 22 34
e 22 35
e 22 36
e 22 37
e 22 40
e 22 43
e 22 44
e 22 47
e 22 48
e 22 49
e 22 51
e 22 52
e 22 53
e 22 57
e 22 58
e 22 59
e 22 61
e 22 64
e 22 65
e 22 67
e 22 70
e 22 73
e 22 74
e 22 75
e 22 79
e 22 80
e 22 82
e 22 86
e 22 88
e 22 89
e 22 92
e 22 95
e 22 96
e 22 97
e 22 100
e 22 106
e 22 108
e 22 109
e 22 112
e 22 113
e 22 115
e 22 116
e 22 119
e 22 120
e 22 121
e 22 125
e 22 139
e 22 140
e 22 141
e 22 142
e 22 148
e 22 159
e 22 165
e 22 166
e 22 168
e 22 169
e 22 175
e 22 179
e 22 182
e 22 184
e 22 185
e 22 190
e 22 191
e 22 194
e 23 25
e 23 26
e 23 27
e 23 28
e 23 29
e 23 33
e 23 34
e 23 35
e 23 38
e 23 40
e 23 42
e 23 45
e 23 47
e 23 49
e 23 53
e 23 54
e 23 55
e 23 56
e 23 57
e 23 60
e 23 66
e 23 67
e 23 68
e 23 70
e 23 71
e 23 81
e 23 85
e 23 86
e 23 87
e 23 89
e 23 90
e 23 91
e 23 98
e 23 102
e 23 104
e 23 107
e 23 112
e 23 113
e 23 114
e 23 115
e 23 117
e 23 118
e 23 120
e 23 122
e 23 125
e 23 127
e 23 130
e 23 136
e 23 137
e 23 138
e 23 139
e 23 142
e 23 143
e 23 147
e 23 152
e 23 154
e 23 157
e 23 160
e 23 163
e 23 174
e 23 176
e 23 180
e 23 182
e 23 187
e 24 25
e 24 26
e 24 27
e 24 28
e 24 29
e 24 30
e 24 31
e 24 33
e 24 34
e 24 38
e 24 39
e 24 42
e 24 44
e 24 45
e 24 46
e 24 48
e 24 51
e 24 52
e 24 53
e 24 56
e 24 59
e 24 65
e 24 68
e 24 70
e 24 71
e 24 74
e 24 77
e 24 80
e 24 81
e 24 84
e 24 92
e 24 97
e 24 110
e 24 121
e 24 127
e 24 129
e 24 134
e 24 139
e 24 144
e 24 148
e 24 149
e 24 156
e 24 157
e 24 158
e 24 162
e 24 179
e 24 181
e 24 183
e 24 189
e 24 194
e 25 27
e 25 28
e 25 30
e 25 32
e 25 33
e 25 34
e 25 35
e 25 36
e 25 45
e 25 47
e 25 51
e 25 56
e 25 59
e 25 61
e 25 63
e 25 64
e 25 69
e 25 73
e 25 74
e 25 75
e 25 76
e 25 83
e 25 85
e 25 105
e 25 112
e 25 114
e 25 116
e 25 118
e 25 124
e 25 126
e 25 127
e 25 131
e 25 137
e 25 138
e 25 154
e 25 155
e 25 167
e 25 172
e 25 179
e 25 190
e 25 191
e 26 27
e 26 28
e 26 29
e 26 30
e 26 32
e 26 33
e 26 35
e 26 36
e 26 37
e 26 38
e 26 41
e 26 42
e 26 43
e 26 44
e 26 45
e 26 47
e 26 52
e 26 53
e 26 54
e 26 55
e 26 61
e 26 69
e 26 70
e 26 77
e 26 78
e 26 80
e 26 85
e 26 86
e 26 87
e 26 89
e 26 90
e 26 97
e 26 101
e 26 105
e 26 107
e 26 110
e 26 111
e 26 113
e 26 119
e 26 122
e 26 125
e 26 129
e 26 131
e 26 132
e 26 135
e 26 136
e 26 141
e 26 149
e 26 159
e 26 160
e 26 165
e 26 170
e 26 172
e 26 174
e 26 175
e 26 184
e 27 28
e 27 29
e 27 30
e 27 31
e 27 33
e 27 35
e 27 37
e 27 40
e 27 41
e 27 43
e 27 50
e 27 51
e 27 53
e 27 63
e 27 68
e 27 70
e 27 73
e 27 74
e 27 78
e 27 82
e 27 89
e 27 94
e 27 101
e 27 113
e 27 117
e 27 121
e 27 123
e 27 147
e 27 162
e 27 163
e 27 166
e 27 175
e 27 181
e 27 184
e 28 33
e 28 34
e 28 36
e 28 38
e 28 39
e 28 40
e 28 41
e 28 44
e 28 45
e 28 46
e 28 49
e 28 50
e 28 51
e 28 52
e 28 55
e 28 57
e 28 58
e 28 59
e 28 60
e 28 61
e 28 63
e 28 68
e 28 72
e 28 78
e 28 80
e 28 89
e 28 98
e 28 99
e 28 100
e 28 101
e 28 109
e 28 115
e 28 116
e 28 117
e 28 118
e 28 128
e 28 140
e 28 144
e 28 151
e 28 152
e 28 155
e 28 163
e 28 172
e 28 182
e 28 195
e 29 30
e 29 31
e 29 32
e 29 33
e 29 34
e 29 37
e 29 39
e 29 40
e 29 41
e 29 42
e 29 44
e 29 46
e 29 49
e 29 50
e 29 51
e 29 55
e 29 57
e 29 58
e 29 63
e 29 65
e 29 69
e 29 71
e 29 72
e 29 74
e 29 76
e 29 81
e 29 85
e 29 88
e 29 90
e 29 98
e 29 103
e 29 105
e 29 110
e 29 113
e 29 120
e 29 122
e 29 125
e 29 133
e 29 136
e 29 137
e 29 157
e 29 159
e 29 164
e 29 177
e 29 183
e 29 184
e 29 189
e 29 196
e 30 31
e 30 32
e 30 34
e 30 35
e 30 37
e 30 38
e 30 39
e 30 40
e 30 41
e 30 44
e 30 53
e 30 55
e 30 58
e 30 62
e 30 65
e 30 66
e 30 69
e 30 72
e 30 73
e 30 75
e 30 81
e 30 88
e 30 90
e 30 91
e 30 103
e 30 104
e 30 107
e 30 110
e 30 123
e 30 125
e 30 126
e 30 127
e 30 129
e 30 136
e 30 141
e 30 144
e 30 155
e 30 156
e 30 160
e 30 163
e 30 166
e 30 171
e 30 179
e 30 180
e 30 191
e 30 192
e 31 32
e 31 34
e 31 36
e 31 38
e 31 39
e 31 43
e 31 44
e 31 45
e 31 47
e 31 48
e 31 52
e 31 62
e 31 63
e 31 66
e 31 85
e 31 89
e 31 93
e 31 94
e 31 106
e 31 112
e 31 114
e 31 115
e 31 123
e 31 128
e 31 130
e 31 133
e 31 136
e 31 138
e 31 139
e 31 143
e 31 155
e 31 160
e 31 161
e 31 167
e 31 178
e 31 182
e 31 183
e 31 187
e 31 192
e 32 33
e 32 34
e 32 38
e 32 41
e 32 42
e 32 45
e 32 46
e 32 49
e 32 51
e 32 52
e 32 53
e 32 72
e 32 79
e 32 87
e 32 93
e 32 94
e 32 98
e 32 101
e 32 105
e 32 107
e 32 119
e 32 134
e 32 136
e 32 140
e 32 143
e 32 151
e 32 159
e 32 161
e 32 165
e 32 186
e 32 188
e 33 37
e 33 38
e 33 39
e 33 40
e 33 41
e 33 42
e 33 45
e 33 46
e 33 47
e 33 48
e 33 49
e 33 51
e 33 52
e 33 55
e 33 62
e 33 63
e 33 64
e 33 67
e 33 77
e 33 86
e 33 88
e 33 94
e 33 101
e 33 107
e 33 108
e 33 110
e 33 115
e 33 117
e 33 118
e 33 127
e 33 133
e 33 148
e 33 169
e 33 173
e 33 187
e 33 191
e 34 35
e 34 36
e 34 37
e 34 38
e 34 39
e 34 40
e 34 41
e 34 42
e 34 47
e 34 48
e 34 49
e 34 50
e 34 56
e 34 59
e 34 61
e 34 64
e 34 75
e 34 78
e 34 79
e 34 81
e 34 90
e 34 91
e 34 93
e 34 99
e 34 100
e 34 104
e 34 106
e 34 107
e 34 108
e 34 111
e 34 112
e 34 122
e 34 123
e 34 127
e 34 131
e 34 132
e 34 134
e 34 136
e 34 140
e 34 146
e 34 149
e 34 150
e 34 154
e 34 166
e 34 183
e 34 186
e 34 187
e 34 189
e 34 192
e 35 36
e 35 37
e 35 38
e 35 47
e 35 50
e 35 51
e 35 60
e 35 61
e 35 63
e 35 64
e 35 65
e 35 72
e 35 76
e 35 80
e 35 91
e 35 93
e 35 109
e 35 111
e 35 115
e 35 122
e 35 151
e 35 160
e 35 166
e 35 173
e 35 181
e 36 37
e 36 40
e 36 41
e 36 43
e 36 44
e 36 46
e 36 47
e 36 49
e 36 51
e 36 53
e 36 54
e 36 55
e 36 57
e 36 60
e 36 65
e 36 68
e 36 71
e 36 78
e 36 82
e 36 84
e 36 87
e 36 104
e 36 124
e 36 129
e 36 135
e 36 137
e 36 138
e 36 139
e 36 142
e 36 144
e 36 154
e 36 160
e 36 169
e 36 180
e 36 181
e 36 188
e 37 39
e 37 40
e 37 42
e 37 45
e 37 54
e 37 57
e 37 59
e 37 69
e 37 70
e 37 71
e 37 80
e 37 85
e 37 86
e 37 90
e 37 99
e 37 100
e 37 102
e 37 106
e 37 108
e 37 113
e 37 125
e 37 135
e 37 151
e 37 157
e 37 161
e 37 162
e 37 188
e 37 192
e 38 39
e 38 41
e 38 43
e 38 44
e 38 45
e 38 48
e 38 52
e 38 53
e 38 60
e 38 61
e 38 64
e 38 67
e 38 71
e 38 73
e 38 75
e 38 76
e 38 77
e 38 79
e 38 90
e 38 102
e 38 104
e 38 106
e 38 111
e 38 129
e 38 131
e 38 132
e 38 133
e 38 136
e 38 149
e 38 162
e 38 163
e 38 173
e 38 175
e 38 179
e 38 187
e 38 190
e 38 192
e 38 193
e 39 41
e 39 43
e 39 44
e 39 49
e 39 53
e 39 55
e 39 56
e 39 57
e 39 58
e 39 59
e 39 60
e 39 62
e 39 64
e 39 65
e 39 66
e 39 67
e 39 70
e 39 71
e 39 75
e 39 76
e 39 84
e 39 87
e 39 94
e 39 97
e 39 101
e 39 102
e 39 105
e 39 106
e 39 108
e 39 112
e 39 113
e 39 114
e 39 117
e 39 119
e 39 121
e 39 130
e 39 134
e 39 137
e 39 139
e 39 150
e 39 154
e 39 156
e 39 157
e 39 159
e 39 163
e 39 172
e 39 177
e 39 178
e 40 43
e 40 48
e 40 49
e 40 57
e 40 62
e 40 79
e 40 83
e 40 85
e 40 89
e 40 101
e 40 105
e 40 109
e 40 114
e 40 120
e 40 122
e 40 124
e 40 128
e 40 137
e 40 146
e 40 151
e 40 153
e 40 158
e 40 159
e 40 168
e 40 171
e 40 196
e 41 43
e 41 44
e 41 45
e 41 48
e 41 49
e 41 59
e 41 61
e 41 63
e 41 64
e 41 67
e 41 68
e 41 69
e 41 78
e 41 79
e 41 80
e 41 88
e 41 93
e 41 95
e 41 96
e 41 101
e 41 102
e 41 103
e 41 104
e 41 106
e 41 107
e 41 115
e 41 118
e 41 125
e 41 132
e 41 140
e 41 143
e 41 146
e 41 148
e 41 149
e 41 151
e 41 152
e 41 153
e 41 156
e 41 160
e 41 165
e 41 169
e 41 174
e 41 175
e 41 183
e 41 184
e 41 192
e 41 193
e 42 47
e 42 48
e 42 52
e 42 55
e 42 56
e 42 58
e 42 59
e 42 61
e 42 80
e 42 86
e 42 88
e 42 89
e 42 91
e 42 96
e 42 110
e 42 136
e 42 152
e 42 176
e 42 196
e 43 50
e 43 52
e 43 62
e 43 67
e 43 68
e 43 69
e 43 73
e 43 74
e 43 82
e 43 92
e 43 99
e 43 104
e 43 113
e 43 117
e 43 130
e 43 141
e 43 142
e 43 146
e 43 147
e 43 148
e 43 162
e 43 167
e 43 177
e 44 54
e 44 57
e 44 65
e 44 71
e 44 77
e 44 82
e 44 84
e 44 85
e 44 90
e 44 91
e 44 92
e 44 93
e 44 102
e 44 109
e 44 111
e 44 116
e 44 117
e 44 124
e 44 126
e 44 131
e 44 132
e 44 134
e 44 138
e 44 145
e 44 152
e 44 156
e 44 157
e 44 162
e 44 173
e 44 188
e 44 189
e 45 49
e 45 54
e 45 55
e 45 57
e 45 62
e 45 64
e 45 69
e 45 72
e 45 79
e 45 82
e 45 85
e 45 89
e 45 96
e 45 97
e 45 103
e 45 113
e 45 116
e 45 120
e 45 122
e 45 124
e 45 165
e 45 179
e 46 48
e 46 56
e 46 59
e 46 82
e 46 83
e 46 88
e 46 96
e 46 110
e 46 112
e 46 124
e 46 128
e 46 132
e 46 134
e 46 141
e 46 143
e 46 145
e 46 151
e 46 168
e 46 175
e 46 177
e 46 178
e 46 188
e 47 53
e 47 54
e 47 61
e 47 65
e 47 66
e 47 71
e 47 74
e 47 77
e 47 78
e 47 81
e 47 85
e 47 88
e 47 97
e 47 101
e 47 105
e 47 111
e 47 112
e 47 116
e 47 118
e 47 120
e 47 129
e 47 147
e 47 149
e 47 152
e 47 155
e 47 157
e 47 175
e 47 179
e 47 184
e 47 188
e 47 196
e 48 50
e 48 58
e 48 59
e 48 60
e 48 62
e 48 63
e 48 67
e 48 68
e 48 69
e 48 70
e 48 71
e 48 73
e 48 84
e 48 88
e 48 91
e 48 94
e 48 103
e 48 107
e 48 109
e 48 112
e 48 115
e 48 121
e 48 126
e 48 131
e 48 134
e 48 137
e 48 142
e 48 152
e 48 156
e 48 161
e 48 166
e 48 171
e 48 174
e 48 176
e 48 178
e 49 52
e 49 54
e 49 57
e 49 58
e 49 72
e 49 74
e 49 76
e 49 77
e 49 84
e 49 89
e 49 102
e 49 109
e 49 111
e 49 119
e 49 121
e 49 122
e 49 133
e 49 137
e 49 145
e 49 150
e 49 155
e 49 167
e 49 176
e 49 180
e 50 51
e 50 54
e 50 60
e 50 63
e 50 66
e 50 72
e 50 74
e 50 78
e 50 83
e 50 100
e 50 102
e 50 108
e 50 133
e 50 138
e 50 140
e 50 161
e 50 172
e 50 176
e 50 181
e 50 196
e 51 53
e 51 55
e 51 61
e 51 65
e 51 66
e 51 74
e 51 76
e 51 93
e 51 106
e 51 110
e 51 112
e 51 118
e 51 129
e 51 132
e 51 162
e 51 163
e 51 180
e 52 53
e 52 54
e 52 56
e 52 58
e 52 61
e 52 68
e 52 71
e 52 74
e 52 80
e 52 83
e 52 84
e 52 86
e 52 94
e 52 96
e 52 98
e 52 99
e 52 100
e 52 107
e 52 108
e 52 116
e 52 120
e 52 121
e 52 132
e 52 138
e 52 146
e 52 147
e 52 158
e 52 159
e 52 165
e 52 170
e 52 173
e 52 180
e 52 182
e 52 189
e 52 193
e 52 194
e 52 195
e 53 60
e 53 64
e 53 65
e 53 66
e 53 75
e 53 77
e 53 78
e 53 90
e 53 94
e 53 100
e 53 105
e 53 160
e 53 164
e 53 171
e 54 56
e 54 62
e 54 63
e 54 64
e 54 67
e 54 77
e 54 80
e 54 82
e 54 84
e 54 87
e 54 89
e 54 95
e 54 102
e 54 124
e 54 126
e 54 128
e 54 137
e 54 155
e 54 187
e 54 189
e 55 62
e 55 64
e 55 66
e 55 86
e 55 95
e 55 99
e 55 107
e 55 111
e 55 115
e 55 117
e 55 122
e 55 127
e 55 142
e 55 175
e 55 178
e 55 183
e 55 195
e 56 57
e 56 59
e 56 64
e 56 68
e 56 70
e 56 75
e 56 77
e 56 85
e 56 87
e 56 102
e 56 105
e 56 108
e 56 111
e 56 124
e 56 129
e 56 148
e 56 152
e 56 172
e 56 174
e 56 177
e 56 182
e 56 194
e 57 60
e 57 68
e 57 86
e 57 92
e 57 120
e 57 124
e 57 138
e 57 170
e 57 185
e 58 59
e 58 62
e 58 70
e 58 72
e 58 75
e 58 77
e 58 85
e 58 93
e 58 99
e 58 102
e 58 103
e 58 128
e 58 131
e 58 136
e 58 142
e 58 146
e 58 155
e 58 157
e 58 164
e 58 165
e 58 178
e 58 183
e 59 66
e 59 79
e 59 81
e 59 90
e 59 130
e 59 137
e 59 139
e 59 149
e 59 176
e 59 179
e 59 195
e 60 77
e 60 86
e 60 90
e 60 117
e 60 144
e 60 146
e 60 179
e 60 181
e 60 195
e 61 67
e 61 68
e 61 86
e 61 100
e 61 108
e 61 125
e 61 144
e 61 150
e 61 154
e 61 159
e 61 161
e 61 174
e 61 182
e 62 76
e 62 80
e 62 84
e 62 86
e 62 95
e 62 105
e 62 120
e 62 125
e 62 135
e 62 138
e 62 165
e 62 182
e 62 183
e 62 194
e 63 67
e 63 71
e 63 72
e 63 79
e 63 87
e 63 88
e 63 92
e 63 94
e 63 96
e 63 99
e 63 106
e 63 112
e 63 119
e 63 139
e 63 150
e 63 157
e 63 164
e 63 165
e 63 171
e 63 179
e 63 189
e 64 72
e 64 83
e 64 87
e 64 95
e 64 101
e 64 103
e 64 117
e 64 120
e 64 127
e 64 142
e 64 147
e 64 154
e 65 71
e 65 75
e 65 82
e 65 86
e 65 90
e 65 92
e 65 103
e 65 124
e 65 145
e 65 162
e 65 181
e 65 183
e 65 187
e 66 67
e 66 79
e 66 81
e 66 88
e 66 93
e 66 107
e 66 108
e 66 109
e 66 113
e 66 118
e 66 124
e 66 128
e 66 132
e 66 153
e 66 157
e 66 159
e 66 164
e 66 169
e 67 69
e 67 72
e 67 73
e 67 75
e 67 79
e 67 80
e 67 82
e 67 90
e 67 91
e 67 102
e 67 114
e 67 120
e 67 123
e 67 128
e 67 130
e 67 131
e 67 139
e 67 140
e 67 155
e 67 188
e 67 195
e 68 73
e 68 91
e 68 94
e 68 102
e 68 111
e 68 113
e 68 125
e 68 126
e 68 127
e 68 156
e 68 162
e 68 166
e 68 173
e 68 184
e 68 188
e 69 70
e 69 73
e 69 82
e 69 83
e 69 87
e 69 88
e 69 90
e 69 95
e 69 96
e 69 100
e 69 116
e 69 117
e 69 164
e 69 170
e 69 185
e 70 79
e 70 93
e 70 97
e 70 104
e 70 124
e 70 127
e 70 131
e 70 145
e 70 146
e 70 151
e 70 158
e 70 171
e 70 184
e 71 91
e 71 95
e 71 104
e 71 112
e 71 120
e 71 123
e 71 144
e 71 155
e 71 170
e 71 173
e 71 184
e 72 73
e 72 92
e 72 118
e 72 147
e 72 158
e 72 161
e 72 174
e 72 181
e 72 182
e 73 76
e 73 80
e 73 100
e 73 119
e 73 132
e 73 149
e 73 161
e 73 166
e 73 180
e 73 194
e 74 94
e 74 102
e 74 104
e 74 111
e 74 115
e 74 126
e 74 140
e 74 144
e 74 156
e 74 161
e 74 172
e 74 185
e 75 113
e 75 119
e 75 144
e 75 169
e 75 178
e 76 81
e 76 83
e 76 96
e 76 97
e 76 111
e 76 123
e 76 133
e 76 135
e 76 136
e 76 150
e 76 153
e 76 194
e 76 196
e 77 87
e 77 91
e 77 100
e 77 101
e 77 106
e 77 109
e 77 116
e 77 118
e 77 119
e 77 121
e 77 125
e 77 126
e 77 130
e 77 134
e 77 156
e 77 163
e 77 177
e 77 186
e 77 189
e 77 190
e 78 96
e 78 114
e 78 117
e 78 119
e 78 122
e 78 141
e 78 143
e 78 151
e 78 153
e 78 165
e 79 80
e 79 83
e 79 94
e 79 97
e 79 100
e 79 103
e 79 104
e 79 110
e 79 111
e 79 119
e 79 126
e 79 135
e 79 145
e 79 148
e 79 154
e 79 176
e 79 181
e 80 91
e 80 109
e 80 110
e 80 113
e 80 114
e 80 116
e 80 131
e 80 134
e 80 154
e 80 159
e 80 172
e 80 183
e 80 191
e 81 91
e 81 98
e 81 101
e 81 140
e 81 148
e 81 169
e 81 177
e 81 180
e 81 192
e 82 83
e 82 89
e 82 93
e 82 110
e 82 119
e 82 130
e 82 138
e 82 168
e 82 178
e 83 84
e 83 85
e 83 102
e 83 182
e 84 87
e 84 93
e 84 99
e 84 105
e 84 112
e 84 135
e 84 171
e 84 180
e 84 192
e 85 92
e 85 93
e 85 95
e 85 114
e 85 141
e 85 162
e 86 87
e 86 90
e 86 92
e 86 96
e 86 99
e 86 103
e 86 105
e 86 106
e 86 115
e 86 119
e 86 134
e 86 140
e 86 145
e 86 152
e 86 174
e 86 175
e 86 193
e 87 115
e 87 120
e 87 127
e 87 132
e 87 139
e 87 149
e 87 164
e 87 171
e 87 177
e 87 193
e 88 125
e 88 141
e 88 152
e 88 174
e 89 110
e 89 122
e 89 138
e 89 172
e 89 176
e 89 184
e 90 93
e 90 98
e 90 104
e 90 106
e 90 116
e 90 134
e 90 136
e 90 142
e 90 148
e 90 151
e 90 166
e 90 167
e 90 173
e 91 94
e 91 98
e 91 126
e 91 135
e 91 137
e 91 143
e 91 150
e 91 151
e 91 189
e 91 190
e 91 195
e 92 94
e 92 109
e 92 114
e 92 124
e 92 130
e 92 135
e 92 146
e 92 153
e 92 160
e 92 172
e 92 178
e 92 185
e 93 95
e 93 103
e 93 113
e 93 122
e 93 126
e 93 132
e 93 133
e 93 141
e 93 149
e 93 150
e 93 193
e 94 100
e 94 123
e 94 124
e 94 128
e 94 156
e 94 165
e 94 170
e 94 175
e 95 118
e 95 123
e 95 140
e 96 97
e 96 105
e 96 123
e 96 138
e 96 159
e 96 171
e 96 173
e 96 182
e 96 187
e 96 194
e 97 110
e 97 127
e 97 135
e 97 148
e 97 165
e 97 167
e 97 174
e 98 104
e 98 123
e 98 128
e 98 129
e 98 142
e 98 145
e 99 113
e 99 115
e 99 147
e 99 153
e 99 154
e 99 169
e 99 184
e 99 192
e 100 101
e 100 103
e 100 120
e 100 158
e 100 160
e 100 167
e 100 186
e 100 193
e 101 111
e 101 121
e 101 126
e 101 131
e 101 133
e 101 139
e 101 142
e 101 144
e 101 149
e 101 156
e 101 157
e 101 159
e 101 168
e 101 173
e 101 178
e 101 180
e 101 182
e 101 187
e 101 193
e 102 114
e 102 118
e 102 133
e 102 153
e 102 192
e 103 104
e 103 185
e 104 108
e 104 126
e 104 132
e 104 168
e 104 176
e 105 123
e 105 128
e 105 134
e 105 142
e 105 150
e 105 157
e 105 168
e 106 155
e 106 169
e 106 173
e 106 186
e 107 109
e 107 116
e 107 122
e 107 131
e 107 135
e 107 137
e 107 141
e 107 143
e 107 156
e 107 158
e 107 193
e 108 117
e 108 121
e 108 132
e 108 135
e 108 144
e 108 168
e 108 174
e 108 194
e 109 143
e 109 154
e 109 168
e 109 185
e 109 186
e 110 114
e 110 117
e 110 123
e 110 126
e 110 148
e 110 185
e 111 121
e 111 127
e 111 142
e 111 146
e 111 154
e 111 163
e 111 167
e 112 114
e 112 115
e 112 140
e 112 145
e 112 152
e 112 172
e 112 174
e 112 183
e 112 193
e 112 195
e 113 122
e 113 131
e 113 141
e 113 162
e 113 177
e 113 185
e 114 116
e 114 126
e 114 139
e 114 140
e 114 143
e 114 147
e 114 153
e 114 155
e 114 158
e 114 170
e 114 180
e 114 190
e 115 130
e 115 133
e 115 140
e 115 150
e 115 158
e 115 184
e 115 186
e 115 191
e 116 129
e 116 133
e 116 170
e 116 177
e 117 150
e 117 153
e 117 160
e 117 166
e 117 168
e 117 186
e 118 125
e 118 135
e 118 143
e 118 147
e 118 157
e 118 164
e 119 128
e 119 139
e 119 156
e 119 176
e 119 186
e 119 189
e 120 128
e 120 158
e 121 128
e 121 131
e 121 140
e 121 165
e 121 176
e 121 191
e 121 195
e 122 136
e 122 145
e 122 154
e 122 164
e 122 166
e 122 182
e 122 188
e 122 190
e 123 130
e 123 147
e 123 150
e 123 159
e 123 167
e 123 173
e 123 176
e 123 182
e 123 195
e 124 128
e 124 136
e 124 137
e 124 148
e 124 163
e 124 167
e 124 171
e 124 178
e 124 181
e 124 188
e 124 189
e 124 195
e 125 170
e 125 186
e 126 129
e 126 134
e 126 138
e 126 147
e 126 161
e 126 162
e 126 165
e 126 175
e 126 177
e 126 188
e 127 130
e 127 134
e 127 137
e 127 146
e 127 158
e 127 166
e 127 179
e 127 189
e 128 144
e 128 149
e 128 156
e 128 191
e 129 152
e 129 169
e 129 187
e 129 193
e 129 196
e 130 150
e 130 153
e 130 192
e 131 160
e 131 170
e 132 155
e 132 171
e 133 134
e 133 151
e 133 168
e 133 177
e 133 179
e 133 188
e 133 195
e 134 146
e 134 152
e 134 164
e 134 168
e 134 196
e 135 151
e 135 159
e 135 164
e 136 138
e 136 142
e 136 146
e 136 151
e 136 153
e 136 157
e 136 176
e 136 178
e 137 154
e 137 162
e 137 168
e 137 172
e 138 163
e 138 188
e 138 193
e 139 143
e 139 148
e 139 162
e 140 142
e 140 148
e 140 163
e 140 170
e 140 186
e 141 143
e 142 144
e 142 153
e 142 157
e 142 158
e 143 171
e 144 145
e 145 171
e 145 187
e 146 148
e 146 183
e 147 150
e 147 154
e 147 174
e 147 181
e 147 185
e 148 149
e 148 183
e 148 192
e 149 150
e 149 166
e 149 167
e 149 174
e 150 155
e 150 177
e 150 178
e 151 179
e 151 180
e 151 189
e 151 192
e 152 179
e 152 187
e 153 175
e 153 196
e 154 181
e 154 186
e 155 158
e 155 164
e 155 177
e 155 180
e 155 184
e 155 185
e 157 167
e 157 190
e 158 173
e 158 174
e 158 180
e 158 181
e 158 184
e 159 186
e 160 166
e 161 164
e 161 194
e 162 171
e 162 175
e 162 183
e 162 191
e 163 178
e 164 185
e 164 191
e 165 172
e 165 178
e 165 180
e 165 187
e 165 193
e 165 195
e 166 169
e 166 172
e 167 170
e 167 196
e 169 186
e 170 175
e 170 194
e 174 175
e 174 185
e 175 177
e 175 190
e 176 194
e 177 185
e 177 189
e 177 193
e 177 196
e 178 186
e 178 191
e 178 192
e 178 193
e 178 195
e 180 182
e 180 183
e 181 189
e 182 191
e 183 190
e 185 191
e 187 190
